/*********************************************
 * OPL 22.1.1.0 Data
 * Author: lucas
 * Creation Date: 12 de set de 2023 at 11:55:43
 *********************************************/
Usinas = {"u1", "u2", "u3"};
Cidades = {"c1", "c2", "c3", "c4"};

Custo = [[8, 6, 10, 9], [9, 12, 13, 7], [14, 9, 16, 5]];
KWh_Hora = [35, 50, 40];
Demanda_Pico = [45, 20, 30, 30];